Route #1: 41
Route #2: 2 10 26 46 63 25 48 50
Route #3: 30 37 59 44 64 62 16
Route #4: 15 60 4 21 36 3 29 39 14 9
Route #5: 6 28 47 61 7
Route #6: 27 5 33 65 8 40
Route #7: 32 58 42 49 12 24
Route #8: 13 56 22 43 34 51 18
Route #9: 52 20 53 54 17 55
Route #10: 23 45 31 19 35 38 57 11 1
Cost 1398.3665706974034